p edge 400 1585
e 1 23
e 1 55
e 1 66
e 1 91
e 1 139
e 1 155
e 1 198
e 1 204
e 1 248
e 1 341
e 2 74
e 2 120
e 2 200
e 2 296
e 2 336
e 2 337
e 2 338
e 2 341
e 3 92
e 3 181
e 3 188
e 3 222
e 3 257
e 3 324
e 3 334
e 3 361
e 3 374
e 3 386
e 3 399
e 4 5
e 4 19
e 4 121
e 4 152
e 4 217
e 4 292
e 4 350
e 5 33
e 5 95
e 5 98
e 5 137
e 5 153
e 5 201
e 5 271
e 5 293
e 5 305
e 5 325
e 5 369
e 6 74
e 6 128
e 6 133
e 6 135
e 6 147
e 6 177
e 6 213
e 6 233
e 6 282
e 6 317
e 6 399
e 7 54
e 7 55
e 7 133
e 7 140
e 7 167
e 7 243
e 7 259
e 7 265
e 7 356
e 7 364
e 7 378
e 7 393
e 8 24
e 8 107
e 8 119
e 8 149
e 8 200
e 8 246
e 8 247
e 8 251
e 8 264
e 8 304
e 9 23
e 9 27
e 9 44
e 9 129
e 10 28
e 10 99
e 10 120
e 10 161
e 10 175
e 10 336
e 10 349
e 10 362
e 11 84
e 11 117
e 11 170
e 11 255
e 11 326
e 11 332
e 12 171
e 12 181
e 12 191
e 12 239
e 12 241
e 12 278
e 12 318
e 12 346
e 12 381
e 13 18
e 13 50
e 13 69
e 13 104
e 13 113
e 13 156
e 13 244
e 13 326
e 13 336
e 14 15
e 14 20
e 14 32
e 14 66
e 14 84
e 14 181
e 14 331
e 15 80
e 15 104
e 15 117
e 15 145
e 15 161
e 15 209
e 15 254
e 15 310
e 15 380
e 16 47
e 16 204
e 16 333
e 16 347
e 17 50
e 17 74
e 17 135
e 17 244
e 17 298
e 18 55
e 18 201
e 18 244
e 18 289
e 18 331
e 18 373
e 19 102
e 19 107
e 19 188
e 19 266
e 19 291
e 19 323
e 20 35
e 20 70
e 20 95
e 20 110
e 20 124
e 20 145
e 20 187
e 20 196
e 20 313
e 20 333
e 21 32
e 21 65
e 21 143
e 21 149
e 21 236
e 21 248
e 21 326
e 21 386
e 21 398
e 22 33
e 22 86
e 22 130
e 22 203
e 22 263
e 22 266
e 22 302
e 23 29
e 23 39
e 23 100
e 23 314
e 23 385
e 24 151
e 24 347
e 25 161
e 25 216
e 25 253
e 25 258
e 25 264
e 25 315
e 25 357
e 26 46
e 26 69
e 26 76
e 26 154
e 26 341
e 26 359
e 26 371
e 27 37
e 27 41
e 27 61
e 27 92
e 27 113
e 27 263
e 27 287
e 27 304
e 27 333
e 27 338
e 27 352
e 27 377
e 28 164
e 28 219
e 28 247
e 28 267
e 28 268
e 28 279
e 28 294
e 28 306
e 29 60
e 29 74
e 29 99
e 29 307
e 29 329
e 29 349
e 30 39
e 30 102
e 30 158
e 30 172
e 30 190
e 30 225
e 30 227
e 30 235
e 30 242
e 30 290
e 30 303
e 30 339
e 31 54
e 31 78
e 31 104
e 31 164
e 31 288
e 31 346
e 32 62
e 32 122
e 32 289
e 32 299
e 32 327
e 32 369
e 32 372
e 33 84
e 33 92
e 33 150
e 33 211
e 33 232
e 33 252
e 33 272
e 33 329
e 33 344
e 33 366
e 34 41
e 34 49
e 34 148
e 34 153
e 34 188
e 34 350
e 34 381
e 34 384
e 35 98
e 35 116
e 35 136
e 35 154
e 35 224
e 35 259
e 35 343
e 35 346
e 35 347
e 35 354
e 36 38
e 36 49
e 36 88
e 36 189
e 36 269
e 36 273
e 36 379
e 37 108
e 37 255
e 37 271
e 37 301
e 37 320
e 37 356
e 37 371
e 37 381
e 38 61
e 38 134
e 38 161
e 38 295
e 38 297
e 38 343
e 38 400
e 39 156
e 39 186
e 39 225
e 39 229
e 39 245
e 39 247
e 39 269
e 39 278
e 39 321
e 39 339
e 39 343
e 39 392
e 39 396
e 40 83
e 40 127
e 40 172
e 40 182
e 40 220
e 40 223
e 40 233
e 40 244
e 40 289
e 40 293
e 40 332
e 40 337
e 40 347
e 41 44
e 41 88
e 41 136
e 41 191
e 41 218
e 41 252
e 41 253
e 41 288
e 41 294
e 41 339
e 42 54
e 42 99
e 42 155
e 42 194
e 42 264
e 42 280
e 42 299
e 42 336
e 43 65
e 43 127
e 43 166
e 43 170
e 43 191
e 43 241
e 43 312
e 43 366
e 43 374
e 43 380
e 44 103
e 44 122
e 44 167
e 44 169
e 44 195
e 44 222
e 44 294
e 44 347
e 44 357
e 45 132
e 45 168
e 45 213
e 45 237
e 46 62
e 46 126
e 46 193
e 46 334
e 47 58
e 47 72
e 47 126
e 47 298
e 47 333
e 47 349
e 48 71
e 48 94
e 48 98
e 48 119
e 48 163
e 48 360
e 48 391
e 48 398
e 49 55
e 49 85
e 49 185
e 49 231
e 49 329
e 49 367
e 50 65
e 50 99
e 50 167
e 50 188
e 50 218
e 50 270
e 50 395
e 51 61
e 51 150
e 51 160
e 51 218
e 51 236
e 51 238
e 51 254
e 51 353
e 51 393
e 52 102
e 52 209
e 52 292
e 52 384
e 53 56
e 53 86
e 53 115
e 53 170
e 53 175
e 53 178
e 53 197
e 53 273
e 53 313
e 53 351
e 53 362
e 53 372
e 54 84
e 54 87
e 54 153
e 54 175
e 54 232
e 54 267
e 54 269
e 54 275
e 54 285
e 54 331
e 55 125
e 55 141
e 55 150
e 55 187
e 55 229
e 55 244
e 55 315
e 55 331
e 55 344
e 55 385
e 55 395
e 56 62
e 56 65
e 56 67
e 56 149
e 56 163
e 56 214
e 56 219
e 56 249
e 56 255
e 56 369
e 57 96
e 57 151
e 57 365
e 58 124
e 58 132
e 58 146
e 58 169
e 58 215
e 58 226
e 58 345
e 59 169
e 59 175
e 59 197
e 59 260
e 59 290
e 59 294
e 59 311
e 59 353
e 60 132
e 60 196
e 60 306
e 60 307
e 60 327
e 60 340
e 60 395
e 61 68
e 61 92
e 61 113
e 61 125
e 61 134
e 61 249
e 61 340
e 61 378
e 62 219
e 62 235
e 62 260
e 62 285
e 62 292
e 62 363
e 63 274
e 63 278
e 63 301
e 63 344
e 64 237
e 64 315
e 64 348
e 65 86
e 65 133
e 65 182
e 65 196
e 65 231
e 65 261
e 65 301
e 65 324
e 66 113
e 66 192
e 66 211
e 66 231
e 66 290
e 66 307
e 66 313
e 66 385
e 67 282
e 67 364
e 68 77
e 68 181
e 68 254
e 68 271
e 68 312
e 68 344
e 68 347
e 68 371
e 69 289
e 69 320
e 69 322
e 69 378
e 70 84
e 70 96
e 70 114
e 70 118
e 70 120
e 70 153
e 70 198
e 70 207
e 70 224
e 70 245
e 70 338
e 71 137
e 71 190
e 71 282
e 71 286
e 72 151
e 72 193
e 72 243
e 72 332
e 72 377
e 73 119
e 73 123
e 73 183
e 73 200
e 73 273
e 73 337
e 73 380
e 73 394
e 74 79
e 74 171
e 74 238
e 74 344
e 74 391
e 75 79
e 75 92
e 75 93
e 75 190
e 75 193
e 75 352
e 76 108
e 76 250
e 76 273
e 76 319
e 76 320
e 76 361
e 76 368
e 77 164
e 77 179
e 77 206
e 77 225
e 77 228
e 77 234
e 77 331
e 78 171
e 78 183
e 78 187
e 78 261
e 78 323
e 78 342
e 78 375
e 79 124
e 79 167
e 79 206
e 79 237
e 79 292
e 79 368
e 80 116
e 80 190
e 80 207
e 80 234
e 80 345
e 80 352
e 80 353
e 80 373
e 80 377
e 80 382
e 80 394
e 81 123
e 81 199
e 81 300
e 81 331
e 81 374
e 82 134
e 82 166
e 82 177
e 82 208
e 82 223
e 82 243
e 82 268
e 82 314
e 82 328
e 82 392
e 83 92
e 83 252
e 83 325
e 83 357
e 84 104
e 84 128
e 84 147
e 84 240
e 84 288
e 84 291
e 84 302
e 84 306
e 84 325
e 85 112
e 85 167
e 85 187
e 85 259
e 85 327
e 85 350
e 86 115
e 86 120
e 86 147
e 86 330
e 86 369
e 87 301
e 87 316
e 88 97
e 88 103
e 88 130
e 88 168
e 89 107
e 89 195
e 89 224
e 89 304
e 89 349
e 90 152
e 90 194
e 90 232
e 90 347
e 91 116
e 91 158
e 91 240
e 91 301
e 91 326
e 91 330
e 91 382
e 91 387
e 92 128
e 93 126
e 93 177
e 93 343
e 93 362
e 94 136
e 94 158
e 94 166
e 94 199
e 94 298
e 94 316
e 94 356
e 94 388
e 95 111
e 95 162
e 95 165
e 95 167
e 95 171
e 95 266
e 95 285
e 96 111
e 96 196
e 96 199
e 96 222
e 96 236
e 96 284
e 96 346
e 97 175
e 97 214
e 97 236
e 97 333
e 98 109
e 98 114
e 98 134
e 98 146
e 98 213
e 98 266
e 98 318
e 98 380
e 98 387
e 99 117
e 99 154
e 99 190
e 99 198
e 99 243
e 99 298
e 99 313
e 99 352
e 99 373
e 100 139
e 100 186
e 100 187
e 100 194
e 100 221
e 100 302
e 100 303
e 100 311
e 100 336
e 101 156
e 101 167
e 101 227
e 101 236
e 101 287
e 101 296
e 102 117
e 102 149
e 102 173
e 102 357
e 102 378
e 102 381
e 102 391
e 103 110
e 103 180
e 103 193
e 103 286
e 103 297
e 103 309
e 103 369
e 103 372
e 104 132
e 104 147
e 104 149
e 104 190
e 104 260
e 104 288
e 104 326
e 104 389
e 105 158
e 105 180
e 105 302
e 105 303
e 105 334
e 105 343
e 106 203
e 106 236
e 106 252
e 106 273
e 106 341
e 106 380
e 107 129
e 107 140
e 107 177
e 107 199
e 107 204
e 107 244
e 107 277
e 107 301
e 107 307
e 107 310
e 107 332
e 107 360
e 107 366
e 108 121
e 108 165
e 108 172
e 108 284
e 108 333
e 108 365
e 109 126
e 109 181
e 109 204
e 109 305
e 110 149
e 110 303
e 111 171
e 111 259
e 111 325
e 111 346
e 112 147
e 112 217
e 112 269
e 113 160
e 113 274
e 113 324
e 113 359
e 113 363
e 114 150
e 114 291
e 114 340
e 114 365
e 115 147
e 115 163
e 115 224
e 115 239
e 115 240
e 115 369
e 116 118
e 116 132
e 116 179
e 116 180
e 116 213
e 116 314
e 116 322
e 116 346
e 116 381
e 116 398
e 117 206
e 117 256
e 117 383
e 118 158
e 118 169
e 118 378
e 119 208
e 119 218
e 119 273
e 119 281
e 119 297
e 119 314
e 119 326
e 119 385
e 120 154
e 121 166
e 121 304
e 121 306
e 121 363
e 122 159
e 123 131
e 123 171
e 123 262
e 123 284
e 123 356
e 123 376
e 123 385
e 124 155
e 124 173
e 124 198
e 124 221
e 124 234
e 124 264
e 124 295
e 125 252
e 125 351
e 125 381
e 126 163
e 126 208
e 126 236
e 126 321
e 126 322
e 127 165
e 127 204
e 127 221
e 127 310
e 127 391
e 128 254
e 128 287
e 128 298
e 128 343
e 129 143
e 129 193
e 129 198
e 129 267
e 129 282
e 129 298
e 129 320
e 130 341
e 131 180
e 131 355
e 131 367
e 132 199
e 132 221
e 132 245
e 132 287
e 132 390
e 133 160
e 133 323
e 133 351
e 134 176
e 134 222
e 134 324
e 134 327
e 134 364
e 134 382
e 135 176
e 135 331
e 136 153
e 136 173
e 137 215
e 137 276
e 137 302
e 138 165
e 139 203
e 139 207
e 139 219
e 139 226
e 139 298
e 139 390
e 140 160
e 140 207
e 140 214
e 140 241
e 140 242
e 140 257
e 140 315
e 140 324
e 140 328
e 140 330
e 140 370
e 141 171
e 141 219
e 141 263
e 141 344
e 141 371
e 141 379
e 142 164
e 142 241
e 142 286
e 142 297
e 142 359
e 142 375
e 142 400
e 143 154
e 143 203
e 143 233
e 143 285
e 143 324
e 144 259
e 144 265
e 144 294
e 144 384
e 145 158
e 145 166
e 145 167
e 145 181
e 145 194
e 145 207
e 145 223
e 145 240
e 146 235
e 146 240
e 146 284
e 146 285
e 146 353
e 147 266
e 147 272
e 147 331
e 147 352
e 147 392
e 148 183
e 148 210
e 148 223
e 148 237
e 148 240
e 148 271
e 148 375
e 148 378
e 149 225
e 149 291
e 149 351
e 150 163
e 150 187
e 150 338
e 151 188
e 151 305
e 151 385
e 152 200
e 152 266
e 152 286
e 152 390
e 152 392
e 153 161
e 153 166
e 153 184
e 153 220
e 153 242
e 153 306
e 153 320
e 153 333
e 154 191
e 154 225
e 154 227
e 154 262
e 154 281
e 155 167
e 155 311
e 155 341
e 155 396
e 156 215
e 156 261
e 156 382
e 156 392
e 157 183
e 157 217
e 157 300
e 157 327
e 157 344
e 157 369
e 158 292
e 159 199
e 159 211
e 159 267
e 159 283
e 159 315
e 159 319
e 159 329
e 159 338
e 159 392
e 160 165
e 160 181
e 160 186
e 160 189
e 160 230
e 160 237
e 160 242
e 160 257
e 160 276
e 160 327
e 160 349
e 160 365
e 160 366
e 160 383
e 161 193
e 161 254
e 161 273
e 161 291
e 162 165
e 162 217
e 162 320
e 162 323
e 163 176
e 163 299
e 163 391
e 164 220
e 164 305
e 164 358
e 164 375
e 165 167
e 165 302
e 165 325
e 165 344
e 165 357
e 166 196
e 166 201
e 166 269
e 166 283
e 166 312
e 166 317
e 167 211
e 167 296
e 167 312
e 167 374
e 168 198
e 168 230
e 168 296
e 168 328
e 168 351
e 169 214
e 169 243
e 169 244
e 169 290
e 169 326
e 169 366
e 170 196
e 170 219
e 170 328
e 170 337
e 171 180
e 171 224
e 171 241
e 171 242
e 171 252
e 171 276
e 171 297
e 172 252
e 172 300
e 172 345
e 172 347
e 172 368
e 173 214
e 173 260
e 174 291
e 174 347
e 174 353
e 174 377
e 174 387
e 175 232
e 176 224
e 176 296
e 176 312
e 176 313
e 177 178
e 177 189
e 177 207
e 177 255
e 177 346
e 177 387
e 178 183
e 178 303
e 179 300
e 179 324
e 180 181
e 180 184
e 180 201
e 180 324
e 180 348
e 181 219
e 181 319
e 181 323
e 181 351
e 181 363
e 182 226
e 182 281
e 182 294
e 182 311
e 182 355
e 182 365
e 183 187
e 183 240
e 183 244
e 183 291
e 183 313
e 184 294
e 184 314
e 184 315
e 184 318
e 184 338
e 185 208
e 185 250
e 185 339
e 185 354
e 185 365
e 186 295
e 186 337
e 187 259
e 187 274
e 187 301
e 187 350
e 188 215
e 188 266
e 188 271
e 188 297
e 188 353
e 188 374
e 188 375
e 189 284
e 189 347
e 189 400
e 190 311
e 190 384
e 191 200
e 191 242
e 191 258
e 191 368
e 191 397
e 192 232
e 192 280
e 192 336
e 193 367
e 193 395
e 194 329
e 195 230
e 195 236
e 195 367
e 196 215
e 196 344
e 197 260
e 197 323
e 197 331
e 197 366
e 198 228
e 198 249
e 198 361
e 199 203
e 199 214
e 199 259
e 200 210
e 200 243
e 200 317
e 200 339
e 200 361
e 201 230
e 201 276
e 201 303
e 201 329
e 202 204
e 202 329
e 202 333
e 202 385
e 203 243
e 203 292
e 203 345
e 204 227
e 204 281
e 204 332
e 205 227
e 205 261
e 205 272
e 205 280
e 205 337
e 206 331
e 206 359
e 207 208
e 207 236
e 207 256
e 207 380
e 207 387
e 208 342
e 209 316
e 209 334
e 209 352
e 209 359
e 210 214
e 210 215
e 210 322
e 210 393
e 211 332
e 211 364
e 211 393
e 212 275
e 212 374
e 213 308
e 213 311
e 213 316
e 213 331
e 213 364
e 214 238
e 214 269
e 214 293
e 214 379
e 215 273
e 215 391
e 216 304
e 216 336
e 217 230
e 217 240
e 217 316
e 218 309
e 218 317
e 219 364
e 219 389
e 220 299
e 220 369
e 220 398
e 221 300
e 221 378
e 221 380
e 222 351
e 222 396
e 223 243
e 223 246
e 223 323
e 223 326
e 223 352
e 223 389
e 223 400
e 224 290
e 224 355
e 224 364
e 224 381
e 224 383
e 225 302
e 225 321
e 225 397
e 226 340
e 226 377
e 227 333
e 228 263
e 228 295
e 228 314
e 228 318
e 229 270
e 230 287
e 230 344
e 231 323
e 231 335
e 231 365
e 232 236
e 232 335
e 232 378
e 233 308
e 233 350
e 234 259
e 234 364
e 234 374
e 234 386
e 235 283
e 235 297
e 235 345
e 235 361
e 235 377
e 236 321
e 236 348
e 236 363
e 237 257
e 237 261
e 237 290
e 238 242
e 238 283
e 238 308
e 238 329
e 238 358
e 239 248
e 239 293
e 239 329
e 240 289
e 240 308
e 240 354
e 240 365
e 240 372
e 241 257
e 241 304
e 241 346
e 241 366
e 241 382
e 241 388
e 242 260
e 242 297
e 242 317
e 242 383
e 243 318
e 243 382
e 244 307
e 244 323
e 244 336
e 245 303
e 245 361
e 245 376
e 246 252
e 246 286
e 246 298
e 246 337
e 246 353
e 246 388
e 248 276
e 249 263
e 249 312
e 250 265
e 251 304
e 251 316
e 252 265
e 252 363
e 253 306
e 253 358
e 254 259
e 254 317
e 254 349
e 255 280
e 255 329
e 255 362
e 255 363
e 256 264
e 256 356
e 257 277
e 257 315
e 257 327
e 257 371
e 257 397
e 258 346
e 258 364
e 259 295
e 259 301
e 259 340
e 260 281
e 261 303
e 261 308
e 261 319
e 261 360
e 262 274
e 262 323
e 263 271
e 263 286
e 263 343
e 263 366
e 263 386
e 263 388
e 263 397
e 264 300
e 264 308
e 264 361
e 264 393
e 265 311
e 265 354
e 265 371
e 265 395
e 266 291
e 266 312
e 266 327
e 266 358
e 267 331
e 267 337
e 267 345
e 267 350
e 267 385
e 268 316
e 268 318
e 269 301
e 269 321
e 269 330
e 269 342
e 270 277
e 270 296
e 270 316
e 270 324
e 270 355
e 271 308
e 272 338
e 272 342
e 272 386
e 273 312
e 273 327
e 273 357
e 273 371
e 273 380
e 273 393
e 274 309
e 274 336
e 274 392
e 275 286
e 275 305
e 275 336
e 275 338
e 275 393
e 276 329
e 276 367
e 276 390
e 277 315
e 277 326
e 279 288
e 279 336
e 279 374
e 280 362
e 280 388
e 281 362
e 282 317
e 282 326
e 282 356
e 282 395
e 283 318
e 283 339
e 283 345
e 283 361
e 285 306
e 285 336
e 285 347
e 285 390
e 286 303
e 287 337
e 288 359
e 290 346
e 290 376
e 292 343
e 292 365
e 293 327
e 293 352
e 293 369
e 294 379
e 295 312
e 295 317
e 295 327
e 295 340
e 296 333
e 296 351
e 296 372
e 297 334
e 297 343
e 298 331
e 298 392
e 299 308
e 301 374
e 302 349
e 302 357
e 302 359
e 303 359
e 303 374
e 304 353
e 305 331
e 305 344
e 305 353
e 306 330
e 306 337
e 306 379
e 307 324
e 308 318
e 308 333
e 308 338
e 309 341
e 309 390
e 309 398
e 310 323
e 310 381
e 311 367
e 312 355
e 312 359
e 312 388
e 314 355
e 316 327
e 316 366
e 316 399
e 317 320
e 317 336
e 317 371
e 317 375
e 318 331
e 318 388
e 318 393
e 320 370
e 324 344
e 325 331
e 326 358
e 327 348
e 328 339
e 328 369
e 329 384
e 330 344
e 330 380
e 332 349
e 334 371
e 335 364
e 336 347
e 336 371
e 336 395
e 337 360
e 337 385
e 338 350
e 338 369
e 338 373
e 338 390
e 339 359
e 339 398
e 340 348
e 340 349
e 340 379
e 342 389
e 342 393
e 343 367
e 344 356
e 344 361
e 344 362
e 344 374
e 344 375
e 345 358
e 346 356
e 348 392
e 350 390
e 351 365
e 351 376
e 354 391
e 356 386
e 356 388
e 357 360
e 357 378
e 359 377
e 362 381
e 364 384
e 365 396
e 366 370
e 371 394
e 372 392
e 372 393
e 373 399
e 374 395
e 377 395
e 378 394
e 381 390
e 385 394
e 390 392
